c Sudoku solution
p cnf 729 0
238 0
264 0
277 0
289 0
319 0
357 0
366 0
381 0
461 0
484 0
515 0
539 0
554 0
614 0
645 0
667 0
792 0
823 0
878 0
886 0
916 0
952 0
969 0
865 0
851 0
899 0
729 0
991 0
255 0
472 0
495 0
679 0
571 0
182 0
562 0
176 0
293 0
226 0
583 0
688 0
597 0
696 0
546 0
436 0
528 0
427 0
413 0
449 0
458 0
653 0
718 0
731 0
763 0
756 0
948 0
632 0
621 0
322 0
211 0
117 0
141 0
242 0
159 0
812 0
343 0
168 0
133 0
398 0
973 0
774 0
747 0
844 0
785 0
987 0
837 0
375 0
194 0
125 0
334 0
924 0
935 0
